c --- [ banner ] -------------------------------------------------------------
c 
c CaDiCaL Radically Simplified CDCL SAT Solver
c Copyright (c) 2016-2021 A. Biere, M. Fleury, N. Froleyks
c 
c Version 1.5.2 a5f15211db36c3956764e18194dd5bd63bf3b5e6
c g++ (GCC) 9.3.0 -Wall -Wextra -O3 -DNDEBUG
c Fri Oct 21 01:27:37 EDT 2022 Linux gra-login3 3.10.0-1160.66.1.el7.x86_64 x86_64
c 
c --- [ limit ] --------------------------------------------------------------
c 
c setting conflict limit to 200000 conflicts (due to '200000')
c 
c --- [ parsing input ] ------------------------------------------------------
c 
c reading DIMACS file from '33.cubes2921.adj'
c opening file to read '33.cubes2921.adj'
c found 'p cnf 6160 1595475' header
c parsed 1595475 clauses in 19.24 seconds process time
c closing file '33.cubes2921.adj'
c after reading 1457566778 bytes 1390.0 MB
c 
c --- [ options ] ------------------------------------------------------------
c 
c all options are set to their default value
c 
c --- [ solving ] ------------------------------------------------------------
c 
c time measured in process time since initialization
c 
c  seconds    reductions  redundant   irredundant
c          MB     restarts       trail       variables
c            level   conflicts       glue         remaining
c 
c * 19.24 1388  0 0   0    0    0  0% 0 1595422 2358 38%
c { 20.40 1444  0 0   0    0    0  0% 0 1595422 2358 38%
c i 21.94 1482 385 0   0   52   47 25% 3 1595422 2357 38%
c i 22.09 1484 338 0   0   72   55 23% 3 1595422 2344 38%
c i 24.49 1518 243 0   9  110   92 25% 10 1595422 2341 38%
c i 25.72 1527 186 0  19  159  133 25% 14 1595422 2340 38%
c i 26.63 1531 165 0  25  185  157 26% 17 1595422 2339 38%
c i 28.10 1539 145 0  36  230  195 26% 20 1595422 2338 38%
c i 29.78 1544 134 0  49  282  239 26% 21 1595422 2334 38%
c i 29.85 1544 133 0  51  289  244 26% 21 1595422 2330 38%
c - 34.59 1535 130 1  55  300  247 26% 22 549371 2328 38%
c i 36.70 1500 115 1  71  393  324 26% 24 549371 2327 38%
c i 37.51 1501 110 1  81  447  374 26% 26 549371 2326 38%
c i 39.20 1502 107 1 110  588  496 27% 29 549371 2325 38%
c i 40.36 1502 81 1 118  900  726 28% 27 549371 2324 38%
c } 40.42 1502 74 1 118 1001  793 28% 25 549371 2324 38%
c [ 40.42 1502  0 1 118 1001  793  0% 0 549371 2324 38%
c O 40.42 1502  2 1 118 1002  794 12% 1 549371 2324 38%
c i 40.50 1502  3 1 118 1006  797 15% 1 549371 2313 38%
c - 42.42 1628 22 2 118 1343  972 32% 17 549229 2313 38%
c 
c  seconds    reductions  redundant   irredundant
c          MB     restarts       trail       variables
c            level   conflicts       glue         remaining
c 
c i 42.71 1628 21 2 118 1451 1049 32% 17 549229 2312 38%
c i 42.86 1628 19 2 118 1721 1193 32% 15 549229 2311 38%
c i 42.91 1628 19 2 118 1745 1210 32% 15 549229 2310 38%
c i 43.15 1628 18 2 119 2116 1383 32% 15 549229 2309 37%
c - 44.23 1626 18 3 119 2910 1366 32% 16 549217 2309 37%
c ] 44.81 1626 18 3 119 3004 1411 54% 16 549217 2309 37%
c { 44.81 1626 74 3 119 3004 1411 75% 25 549217 2309 37%
c F 44.93 1626 74 3 119 3005 1412 75% 25 549217 2309 37%
c i 46.74 1626 62 3 148 3548 1857 66% 25 549217 2308 37%
c i 47.10 1626 61 3 155 3688 1971 64% 25 549217 2307 37%
c i 48.48 1626 63 3 183 3823 2081 63% 26 549217 2306 37%
c i 48.75 1626 64 3 191 3854 2109 63% 26 549217 2305 37%
c i 49.09 1626 63 3 204 3925 2155 62% 26 549217 2304 37%
c i 49.45 1626 62 3 206 3997 2208 61% 26 549217 2299 37%
c i 49.78 1626 61 3 206 4058 2245 61% 26 549217 2298 37%
c i 50.43 1626 61 3 211 4106 2284 60% 26 549217 2297 37%
c i 50.76 1626 61 3 214 4157 2328 60% 26 549217 2296 37%
c i 51.14 1626 58 3 216 4405 2526 59% 26 549217 2295 37%
c i 51.18 1626 57 3 216 4472 2567 59% 25 549217 2294 37%
c i 51.28 1626 57 3 216 4478 2572 59% 25 549217 2293 37%
c 
c  seconds    reductions  redundant   irredundant
c          MB     restarts       trail       variables
c            level   conflicts       glue         remaining
c 
c i 53.31 1626 59 3 251 4628 2701 58% 27 549217 2292 37%
c - 55.41 1601 56 4 261 4998 2305 57% 26 509414 2292 37%
c d 56.26 1601 56 4 261 5000 2304 57% 26 509395 2283 37%
c 3 56.31 1601 56 4 261 5000 3288 57% 26 509395 2283 37%
c 2 56.43 1601 56 4 261 5000 3381 57% 26 509395 2278 37%
c p 69.05 1601 56 4 261 5000 7897 57% 26 509395 2205 36%
c d 69.99 1601 56 4 261 5000 7437 57% 26 509165 2202 36%
c # 71.85 1601 48 4 261 6006 8153 55% 24 509165 2202 36%
c } 81.36 1601 49 4 381 7006 8971 53% 26 509165 2202 36%
c [ 81.36 1601 18 4 381 7006 8971 54% 16 509165 2202 36%
c - 82.93 1581 23 5 382 7560 3593 49% 19 509165 2202 36%
c I 85.03 1580 27 5 383 10007 5331 50% 22 509165 2202 36%
c - 88.08 1580 27 6 384 10633 4024 49% 22 509165 2202 36%
c - 96.82 1580 27 7 386 14218 4240 50% 23 509165 2202 36%
c 2 98.95 1580 27 7 386 15003 5896 51% 23 509163 2202 36%
c p 108.27 1580 27 7 386 15003 10122 51% 23 509163 2201 36%
c ] 108.67 1580 27 7 386 15007 10125 51% 23 509163 2201 36%
c { 108.67 1580 49 7 386 15007 10125 53% 26 509163 2201 36%
c B 108.77 1580 49 7 386 15008 10126 53% 26 509163 2201 36%
c - 111.78 1580 39 8 405 18314 4931 52% 23 509160 2201 36%
c 
c  seconds     reductions   redundant   irredundant
c           MB     restarts        trail       variables
c             level    conflicts       glue         remaining
c 
c s 112.25 1580 38 8 405 18807 5225 52% 23 506228 2201 36%
c v 123.49 1580 38 8 405 18807 5225 52% 23 506198 2201 36%
c w 123.70 1580 38 8 405 18807 5220 52% 23 506198 2201 36%
c t 123.72 1580 38 8 405 18807 5207 52% 23 506187 2201 36%
c e 125.80 1582 38 8 405 18807 4962 52% 23 504260 1027 17%
c s 125.97 1582 38 8 405 18807 4962 52% 23 499174 1027 17%
c W 132.48 1580 35 8 456 21009 6396 63% 22 499174 1027 17%
c - 141.68 1580 36 9 674 22922 5845 63% 23 499174 1027 17%
c F 153.87 1580 33 9 795 28010 9355 64% 21 499174 1027 17%
c - 154.29 1580 33 10 795 28016 6531 64% 21 499174 1027 17%
c 2 158.38 1580 32 10 875 30004 8748 64% 21 499172 1027 17%
c p 162.55 1580 32 10 875 30004 11232 64% 21 499172 1027 17%
c } 163.94 1580 32 10 875 31007 11906 64% 21 499172 1027 17%
c [ 163.94 1580 27 10 875 31007 11906 114% 23 499172 1027 17%
c - 165.50 1580 26 11 876 33620 7588 102% 22 499172 1027 17%
c B 166.74 1580 25 11 878 36014 9080 95% 21 499172 1027 17%
c - 169.11 1373 29 12 880 39736 8405 88% 25 499172 1027 17%
c W 173.58 1373 30 12 882 45017 12423 82% 26 499172 1027 17%
c - 174.23 1582 31 13 883 46360 9154 81% 26 499172 1027 17%
c p 178.00 1582 30 13 883 50007 15119 79% 26 499172 1027 17%
c 
c  seconds     reductions    redundant   irredundant
c           MB      restarts        trail       variables
c             level     conflicts       glue         remaining
c 
c - 179.53 1373 30 14 883 53492 9508 77% 26 499172 1027 17%
c s 180.06 1373 30 14 884 54510 10161 77% 26 496446 1027 17%
c v 189.77 1373 30 14 884 54510 10161 77% 26 496417 1027 17%
c t 190.21 1373 30 14 884 54510 10160 77% 26 496416 1027 17%
c e 192.16 1373 30 14 884 54510 10125 77% 26 496414 1025 17%
c s 192.39 1373 30 14 884 54510 10124 77% 26 493315 1025 17%
c O 195.02 1374 30 14 884 55018 10473 76% 26 493315 1025 17%
c - 198.51 1582 29 15 889 61136 10509 75% 25 493315 1025 17%
c ] 199.36 1582 28 15 890 63010 11920 75% 25 493315 1025 17%
c { 199.36 1582 32 15 890 63010 11920 64% 21 493315 1025 17%
c B 204.08 1582 32 15 1091 66021 14180 65% 21 493315 1025 17%
c - 212.49 1374 31 16 1253 69263 11202 65% 21 493315 1025 17%
c p 223.07 1374 29 16 1384 75007 18770 65% 20 493315 1025 17%
c - 227.59 1581 29 17 1472 77898 11649 65% 20 493315 1025 17%
c W 228.01 1581 29 17 1472 78026 11734 65% 20 493315 1025 17%
c - 238.33 1374 26 18 1583 87042 12031 65% 19 493315 1025 17%
c # 240.98 1374 26 18 1641 91027 14614 65% 18 493315 1025 17%
c - 251.50 1581 25 19 1841 96693 12938 65% 18 493315 1025 17%
c p 260.08 1581 24 19 1916 105007 21764 65% 17 493315 1025 17%
c B 260.68 1581 24 19 1916 105028 21783 65% 17 493315 1025 17%
c 
c  seconds     reductions       redundant   irredundant
c           MB      restarts           trail       variables
c             level      conflicts         glue         remaining
c 
c - 263.87 1374 23 20 1977 106851 13430 65% 17 493315 1025 17%
c s 266.96 1374 23 20 2051 107976 14195 65% 17 491526 1025 17%
c v 276.63 1374 23 20 2051 107976 14195 65% 17 491485 1025 17%
c w 277.24 1374 23 20 2051 107976 14194 65% 17 491485 1025 17%
c s 279.46 1374 23 20 2051 107976 14193 65% 17 489018 1025 17%
c } 297.86 1374 24 20 2560 115287 19110 65% 17 489018 1025 17%
c 1 297.86 1374 24 20 2560 115287 19110 65% 17 489018 1025 17%
c 
c --- [ writing output ] -----------------------------------------------------
c 
c writing simplified CNF to DIMACS file 'simp/33.cubes2921.adj.simp1'
c * 297.86 1374 24 20 2560 115287 19110 65% 17 489018 1025 17%
c opening file to write 'simp/33.cubes2921.adj.simp1'
c writing 'p cnf 6160 489018' header
c closing file 'simp/33.cubes2921.adj.simp1'
c after writing 238498284 bytes 227.4 MB
c wrote 489018 clauses in 1.70 seconds process time
c 
c --- [ writing extension ] --------------------------------------------------
c 
c writing extension stack to 'simp/33.cubes2921.adj.ext1'
c opening file to write 'simp/33.cubes2921.adj.ext1'
c closing file 'simp/33.cubes2921.adj.ext1'
c after writing 82184 bytes 0.1 MB
c wrote 3650 witnesses in 0.00 seconds process time
c 
c --- [ result ] -------------------------------------------------------------
c 
s SATISFIABLE
c 
c --- [ run-time profiling ] -------------------------------------------------
c 
c process time taken by individual solving procedures
c (percentage relative to process time for solving)
c 
c       195.41   70.13% search
c       153.19   54.98% unstable
c        83.22   29.87% simplify
c        38.43   13.79% stable
c        35.85   12.87% probe
c        31.73   11.39% vivify
c        19.24    6.90% parse
c        11.36    4.08% elim
c         2.62    0.94% walk
c         1.46    0.52% subsume
c         1.16    0.42% lucky
c         0.41    0.15% ternary
c   =================================
c       278.62   93.01% solve
c 
c last line shows process time for solving
c (percentage relative to total process time)
c 
c --- [ statistics ] ---------------------------------------------------------
c 
c chronological:             22044        19.12 %  of conflicts
c conflicts:                115287       413.77    per second
c decisions:                253573       910.09    per second
c eliminated:                 1176        19.09 %  of all variables
c fixed:                       803        13.04 %  of all variables
c learned:                  112435        97.53 %  per conflict
c learned_lits:           20220285       100.00 %  learned literals
c minimized:                     0         0.00 %  learned literals
c shrunken:               12922974        63.91 %  learned literals
c minishrunken:            1539074         7.61 %  learned literals
c propagations:           10019953         0.04 M  per second
c reduced:                   59732        51.81 %  per conflict
c rephased:                     14      8234.79    interval
c restarts:                   2560        45.03    interval
c stabilizing:                   3        36.44 %  of conflicts
c substituted:                  12         0.19 %  of all variables
c subsumed:                  51901         1.44 %  of all clauses
c strengthened:              23625         0.66 %  of all clauses
c ternary:                    5241         0.74 %  of resolved
c vivified:                    135         0.00 %  of all clauses
c walked:                        3     38429.00    interval
c weakened:                   2847         3.20    average size
c 
c seconds are measured in process time for solving
c 
c --- [ resources ] ----------------------------------------------------------
c 
c total process time since initialization:       299.56    seconds
c total real time since initialization:          299.95    seconds
c maximum resident set size of process:         1882.37    MB
c 
c --- [ shutting down ] ------------------------------------------------------
c 
c exit 10
WARNING! DIMACS header mismatch: wrong number of variables.
============================[ Problem Statistics ]=============================
|                                                                             |
|  Number of variables:          4042                                         |
|  Number of clauses:          489020                                         |
|  Parse time:                   3.12 s                                       |
|  Simplification time:          0.08 s                                       |
|                                                                             |
============================[ Search Statistics ]====================================================
| Conflicts |          ORIGINAL         |          LEARNT          | Num Sols |      SUBGRAPHS      |
|           |    Vars  Clauses Literals |    Limit  Clauses Lit/Cl |          | Canonical Noncanon. |
=====================================================================================================
|       100 |    3952   489020 51405785 |     2000      100    139 |        0 |        15         0 |
|       273 |    3952   489043 51406198 |     2000      273     96 |        0 |        30        23 |
|       661 |    3952   489206 51408541 |     2000      661     75 |        0 |        84       186 |
|      1059 |    3952   489267 51409713 |     2000     1059     67 |        0 |       102       247 |
|      1597 |    3952   489299 51410188 |     2000     1597     62 |        0 |       129       279 |
|      2401 |    3952   489344 51410744 |     3601     1402     38 |        0 |       145       324 |
|      3554 |    3952   489358 51411047 |     3601     2555     71 |        0 |       167       338 |
|      5442 |    3952   489538 51414351 |     5006     2648     52 |        0 |       240       518 |
|      8308 |    3952   489842 51420230 |     6308     3016     31 |        0 |       315       822 |
|     12295 |    3952   489985 51424312 |     7557     3852     35 |        0 |       410       965 |
|     18132 |    3952   490056 51426225 |     8790     5922     53 |        0 |       453      1036 |
|     27019 |    3952   490294 51430510 |    11206     5425     21 |        0 |       538      1274 |
|     42047 |    3952   492348 51464937 |    13609     8656     31 |        0 |      1127      3328 |
|     62992 |    3952   493832 51487118 |    16009    15401     52 |        0 |      1452      4812 |
|     93387 |    3952   495035 51512375 |    20810    10197     13 |        0 |      1895      6015 |
|    140366 |    3952   498225 51573997 |    24410    24176     57 |        0 |      2612      9205 |
|    214489 |    3952   506664 51707377 |    31623    16112     19 |        0 |      4600     17644 |
|    320587 |    3952   514236 51827608 |    37612    37199     54 |        0 |      6933     25216 |
|    481449 |    3952   527309 52037415 |    47224    30873     38 |        0 |      9774     38289 |
|    713202 |    3952   537379 52193965 |    58024    28626     21 |        0 |     12269     48359 |
|   1064457 |    3952   556109 52472720 |    70024    62881     55 |        0 |     17284     67089 |
|   1573154 |    3952   566018 52643514 |    85622    69776     47 |        0 |     20119     76998 |
|   2392192 |    3921   327573 23838625 |   105990    79582     44 |        0 |     36834    147854 |
=====================================================================================================
Number of solutions   : 0
Canonical subgraphs   : 40967          (4 /sec)
          order  3    : 1              (200000 /sec)
          order  4    : 1              (500000 /sec)
          order  5    : 1              (200000 /sec)
          order  6    : 1              (55556 /sec)
          order  7    : 1              (8696 /sec)
          order  8    : 2              (1363 /sec)
          order  9    : 4              (240 /sec)
          order 10    : 9              (46 /sec)
          order 11    : 38             (12 /sec)
          order 12    : 183            (4 /sec)
          order 13    : 775            (2 /sec)
          order 14    : 12686          (4 /sec)
          order 15    : 10130          (5 /sec)
          order 16    : 16072          (4 /sec)
          order 17    : 623            (4 /sec)
          order 18    : 392            (4 /sec)
          order 19    : 48             (3 /sec)
          order 20    : 0              (-nan /sec)
          order 21    : 0              (-nan /sec)
          order 22    : 0              (-nan /sec)
Noncanonical subgraphs: 173709         (133 /sec)
          order  3    : 0              (-nan /sec)
          order  4    : 0              (-nan /sec)
          order  5    : 0              (-nan /sec)
          order  6    : 0              (-nan /sec)
          order  7    : 0              (-nan /sec)
          order  8    : 0              (-nan /sec)
          order  9    : 0              (-nan /sec)
          order 10    : 0              (-nan /sec)
          order 11    : 0              (-nan /sec)
          order 12    : 0              (-nan /sec)
          order 13    : 1800           (21260 /sec)
          order 14    : 26085          (2827 /sec)
          order 15    : 106716         (324 /sec)
          order 16    : 14018          (248 /sec)
          order 17    : 24881          (27 /sec)
          order 18    : 199            (33 /sec)
          order 19    : 10             (21 /sec)
          order 20    : 0              (-nan /sec)
          order 21    : 0              (-nan /sec)
Canonicity checking   : 10020.7 s
Noncanonicity checking: 1309.83 s
Total canonicity time : 11330.5 s
database reductions   : 87
restarts              : 4097
conflicts             : 2461858        (198 /sec)
decisions             : 3383693        (0.00 % random) (272 /sec)
propagations          : 146263226      (11740 /sec)
conflict literals     : 223344553      (56.79 % deleted)
actual reward         : 0.214004
Memory used           : 741.00 MB
CPU time              : 12458.9 s

UNSATISFIABLE
